\* Problem: Unknown *\

Maximize
 obj: + xp_0_0 + xp_0_1 + xp_1_0 + xp_2_0 + xp_2_1 + xp_3_0 + xp_4_0
 + xp_5_0 + xp_6_0 + xp_6_1 + xp_6_2 + xp_7_0 + xp_8_0 + xp_9_0
 + xp_10_0 + xp_10_1 + xp_10_2 + xp_11_0 + xp_12_0 + xp_12_1 + xp_13_0
 + xp_14_0 + xp_15_0 + xp_15_1 + xp_16_0 + xp_17_0 + xp_17_1 + xp_18_0
 + xp_18_1 + xp_19_0 + xp_20_0 + xp_21_0 + xp_21_1 + xp_21_2 + xp_22_0
 + xp_22_1 + xp_23_0 + xp_24_0 + xp_24_1 + xp_24_2 + xp_25_0 + xp_25_1
 + xp_26_0 + xp_27_0 + xp_28_0 + xp_28_1 + xp_29_0 + xp_29_1 + xp_30_0
 + xp_31_0 + xp_31_1 + xp_32_0 + xp_33_0 + xp_34_0 + xp_35_0 + xp_36_0
 + xp_37_0 + xp_38_0 + xp_38_1 + xp_39_0 + xp_40_0 + xp_40_1 + xp_41_0
 + xp_42_0 + xp_42_1 + xp_42_2 + xp_43_0 + xp_44_0 + xp_44_1 + xp_45_0
 + xp_46_0 + xp_47_0 + xp_48_0 + xp_48_1 + xp_49_0 + xp_50_0 + xp_51_0
 + xp_52_0 + xp_52_1 + xp_53_0 + xp_54_0 + xp_55_0 + xp_55_1 + xp_56_0
 + xp_57_0 + xp_58_0 + xp_58_1 + xp_59_0 + xp_60_0 + xp_60_1 + xp_60_2
 + xp_61_0 + xp_61_1 + xp_62_0 + xp_63_0 + xp_63_1 + xp_64_0 + xp_65_0

Subject To
 r_1: + xp_60_2 + xp_53_0 + xp_51_0 + xp_42_1 + xp_40_0 + xp_35_0
 + xp_33_0 <= 148.340353833193
 r_2: + xp_58_1 + xp_24_2 + xp_15_1 <= 151.25355450237
 r_3: + xp_56_0 + xp_21_0 + xp_12_0 <= 153.637538779731
 r_4: + xp_65_0 + xp_50_0 + xp_45_0 + xp_24_1 + xp_24_0 + xp_21_2
 + xp_15_0 + xp_10_1 + xp_10_0 + xp_5_0 + xp_2_1 <= 140.768902785674
 r_5: + xp_38_0 + xp_31_1 + xp_17_0 + xp_14_0 <= 140.768902785674
 r_6: + xp_52_1 + xp_22_0 + xp_21_1 + xp_13_0 + xp_12_1 + xp_10_2
 + xp_3_0 + xp_2_0 <= 150.204731574158
 r_7: + xp_60_1 + xp_48_1 + xp_46_0 + xp_42_2 + xp_42_0 + xp_40_1
 + xp_6_2 + xp_0_0 <= 149.23665791776
 r_8: 0 xp_0_0 <= 152.393669634026
 r_9: + xp_64_0 + xp_63_1 + xp_29_1 + xp_25_0 + xp_24_2 + xp_21_0
 + xp_6_0 <= 148.340353833193
 r_10: + xp_63_0 <= 150.204731574158
 r_11: + xp_61_1 + xp_60_0 + xp_38_1 + xp_31_0 <= 155
 r_12: + xp_62_0 + xp_61_0 + xp_60_2 + xp_60_1 + xp_22_1
 <= 150.204731574158
 r_13: + xp_64_0 + xp_59_0 + xp_58_1 + xp_56_0 + xp_29_1 + xp_29_0
 + xp_24_2 + xp_21_0 + xp_20_0 + xp_15_1 + xp_12_0 <= 148.340353833193
 r_14: + xp_60_2 + xp_60_1 + xp_57_0 + xp_53_0 + xp_42_2 + xp_42_1
 + xp_35_0 + xp_18_0 <= 148.340353833193
 r_15: + xp_63_1 + xp_58_0 <= 149.23665791776
 r_16: + xp_65_0 + xp_55_0 + xp_53_0 + xp_51_0 + xp_50_0 + xp_44_1
 + xp_10_1 + xp_10_0 <= 151.25355450237
 r_17: + xp_58_1 + xp_54_0 + xp_52_1 + xp_36_0 + xp_31_1
 <= 140.768902785674
 r_18: + xp_55_1 + xp_52_0 + xp_21_2 + xp_2_1 <= 153.637538779731
 r_19: + xp_60_0 + xp_48_0 <= 152.393669634026
 r_20: + xp_61_1 + xp_50_0 + xp_49_0 + xp_48_1 + xp_46_0 + xp_45_0
 + xp_10_1 + xp_6_2 <= 140.768902785674
 r_21: + xp_47_0 + xp_26_0 + xp_22_1 + xp_17_1 + xp_17_0 + xp_7_0 <= 155
 r_22: + xp_61_0 + xp_60_1 + xp_43_0 + xp_42_2 + xp_42_0 + xp_40_1
 + xp_38_0 <= 150.204731574158
 r_23: + xp_56_0 + xp_52_1 + xp_52_0 + xp_41_0 + xp_38_1 + xp_34_0
 + xp_31_0 <= 150.204731574158
 r_24: + xp_62_0 + xp_60_2 + xp_44_1 + xp_44_0 + xp_42_1 + xp_40_0
 + xp_39_0 + xp_21_1 + xp_12_1 + xp_10_2 + xp_2_0 <= 153.637538779731
 r_25: + xp_62_0 + xp_60_2 + xp_55_1 + xp_44_0 + xp_42_1 + xp_40_0
 + xp_37_0 + xp_35_0 + xp_33_0 + xp_10_2 <= 153.637538779731
 r_26: + xp_44_1 + xp_39_0 + xp_36_0 + xp_32_0 + xp_31_1
 <= 153.637538779731
 r_27: + xp_56_0 + xp_52_0 + xp_34_0 + xp_31_0 + xp_30_0
 <= 153.637538779731
 r_28: + xp_60_0 + xp_48_1 + xp_48_0 + xp_42_0 + xp_29_1 + xp_27_0
 + xp_25_0 + xp_24_2 + xp_21_0 + xp_18_1 + xp_8_0 + xp_6_0
 <= 150.204731574158
 r_29: + xp_29_0 + xp_28_0 + xp_25_1 + xp_24_1 + xp_22_0 + xp_6_1
 + xp_0_1 <= 149.23665791776
 r_30: + xp_63_0 + xp_28_1 + xp_26_0 + xp_24_0 + xp_23_0 + xp_22_1
 + xp_21_2 + xp_21_1 + xp_17_1 <= 152.393669634026
 r_31: + xp_63_1 + xp_58_0 + xp_28_0 + xp_24_1 + xp_22_0 + xp_19_0
 + xp_17_0 + xp_15_0 + xp_14_0 + xp_13_0 + xp_12_1 <= 149.23665791776
 r_32: + xp_60_1 + xp_46_0 + xp_42_2 + xp_40_1 + xp_29_0 + xp_25_1
 + xp_20_0 + xp_18_0 + xp_16_0 + xp_15_1 + xp_12_0 + xp_6_2 + xp_6_1
 <= 149.23665791776
 r_33: + xp_48_1 + xp_42_0 + xp_18_1 + xp_17_1 + xp_11_0
 <= 149.23665791776
 r_34: + xp_26_0 + xp_23_0 + xp_22_1 + xp_17_1 + xp_10_1 + xp_7_0
 + xp_6_2 + xp_4_0 <= 152.393669634026
 r_35: + xp_60_0 + xp_48_0 + xp_8_0 + xp_6_1 + xp_6_0 + xp_1_0 + xp_0_1
 <= 152.393669634026
 r_36: + xp_63_0 + xp_28_1 + xp_24_0 + xp_21_2 + xp_21_1 + xp_10_2
 + xp_10_0 + xp_9_0 + xp_5_0 + xp_3_0 + xp_2_1 + xp_2_0 + xp_0_0
 <= 152.393669634026

Bounds
 0 <= xp_0_0 <= 5.51551094890511
 0 <= xp_0_1 <= 22.0620437956204
 0 <= xp_1_0 <= 22.3448905109489
 0 <= xp_2_0 <= 14.764598540146
 0 <= xp_2_1 <= 9.84306569343065
 0 <= xp_3_0 <= 14.2837591240876
 0 <= xp_4_0 <= 28.0018248175182
 0 <= xp_5_0 <= 22.3448905109489
 0 <= xp_6_0 <= 10.2956204379562
 0 <= xp_6_1 <= 10.2956204379562
 0 <= xp_6_2 <= 5.1478102189781
 0 <= xp_7_0 <= 21.779197080292
 0 <= xp_8_0 <= 24.7490875912409
 0 <= xp_9_0 <= 17.2536496350365
 0 <= xp_10_0 <= 6.44890510948905
 0 <= xp_10_1 <= 6.44890510948905
 0 <= xp_10_2 <= 3.22445255474452
 0 <= xp_11_0 <= 25.3147810218978
 0 <= xp_12_0 <= 6.61861313868613
 0 <= xp_12_1 <= 9.92791970802919
 0 <= xp_13_0 <= 14.8494525547445
 0 <= xp_14_0 <= 22.4863138686131
 0 <= xp_15_0 <= 16.8010948905109
 0 <= xp_15_1 <= 11.2007299270073
 0 <= xp_16_0 <= 26.7290145985401
 0 <= xp_17_0 <= 9.39051094890511
 0 <= xp_17_1 <= 14.0857664233577
 0 <= xp_18_0 <= 8.03284671532847
 0 <= xp_18_1 <= 12.0492700729927
 0 <= xp_19_0 <= 19.375
 0 <= xp_20_0 <= 23.0520072992701
 0 <= xp_21_0 <= 3.70529197080292
 0 <= xp_21_1 <= 11.1158759124088
 0 <= xp_21_2 <= 3.70529197080292
 0 <= xp_22_0 <= 4.49726277372263
 0 <= xp_22_1 <= 17.9890510948905
 0 <= xp_23_0 <= 23.1934306569343
 0 <= xp_24_0 <= 3.62043795620438
 0 <= xp_24_1 <= 7.24087591240876
 0 <= xp_24_2 <= 7.24087591240876
 0 <= xp_25_0 <= 22.0620437956204
 0 <= xp_25_1 <= 5.51551094890511
 0 <= xp_26_0 <= 18.3850364963504
 0 <= xp_27_0 <= 14.8494525547445
 0 <= xp_28_0 <= 19.5729927007299
 0 <= xp_28_1 <= 4.89324817518248
 0 <= xp_29_0 <= 17.7627737226277
 0 <= xp_29_1 <= 4.44069343065693
 0 <= xp_30_0 <= 27.4361313868613
 0 <= xp_31_0 <= 3.53558394160584
 0 <= xp_31_1 <= 14.1423357664234
 0 <= xp_32_0 <= 15.5565693430657
 0 <= xp_33_0 <= 18.6678832116788
 0 <= xp_34_0 <= 22.4863138686131
 0 <= xp_35_0 <= 15.4151459854015
 0 <= xp_36_0 <= 17.8193430656934
 0 <= xp_37_0 <= 14.1423357664234
 0 <= xp_38_0 <= 14.029197080292
 0 <= xp_38_1 <= 3.50729927007299
 0 <= xp_39_0 <= 14.9908759124088
 0 <= xp_40_0 <= 15.3868613138686
 0 <= xp_40_1 <= 3.84671532846715
 0 <= xp_41_0 <= 20.3649635036496
 0 <= xp_42_0 <= 14.2554744525547
 0 <= xp_42_1 <= 4.75182481751825
 0 <= xp_42_2 <= 4.75182481751825
 0 <= xp_43_0 <= 16.8293795620438
 0 <= xp_44_0 <= 14.3686131386861
 0 <= xp_44_1 <= 3.59215328467153
 0 <= xp_45_0 <= 14.8494525547445
 0 <= xp_46_0 <= 20.7892335766423
 0 <= xp_47_0 <= 19.7992700729927
 0 <= xp_48_0 <= 16.8010948905109
 0 <= xp_48_1 <= 11.2007299270073
 0 <= xp_49_0 <= 14.7080291970803
 0 <= xp_50_0 <= 15.9808394160584
 0 <= xp_51_0 <= 23.9005474452555
 0 <= xp_52_0 <= 21.1569343065693
 0 <= xp_52_1 <= 5.28923357664233
 0 <= xp_53_0 <= 27.7189781021898
 0 <= xp_54_0 <= 27.2947080291971
 0 <= xp_55_0 <= 17.0839416058394
 0 <= xp_55_1 <= 4.27098540145985
 0 <= xp_56_0 <= 14.9908759124088
 0 <= xp_57_0 <= 17.6779197080292
 0 <= xp_58_0 <= 16.4616788321168
 0 <= xp_58_1 <= 10.9744525547445
 0 <= xp_59_0 <= 27.4361313868613
 0 <= xp_60_0 <= 10.4370437956204
 0 <= xp_60_1 <= 3.47901459854014
 0 <= xp_60_2 <= 3.47901459854014
 0 <= xp_61_0 <= 20.478102189781
 0 <= xp_61_1 <= 5.11952554744525
 0 <= xp_62_0 <= 27.2947080291971
 0 <= xp_63_0 <= 20.478102189781
 0 <= xp_63_1 <= 5.11952554744525
 0 <= xp_64_0 <= 27.5775547445255
 0 <= xp_65_0 <= 19.9406934306569

End
